68
117
359
341
757
36
99
264
2269
6777
1263
100
318
360
2331
83
63
4605
96
2132
231
2166
3754
277
76
221
370
688
129
466
150
79
124
1782
120
66
44
1032
91
1232
59
0
133
59
45
7648
260
52
164
129
23
2476
217
2260
79
1244
116
147
126
880
4046
239
610
181
412
426
1258
63
421
76
82
173
10789
424
21
84
715
228
64
39
33
638
107
458
0
551
122
486
84
751
391
27
617
200
61
528
1013
63
69
382
